#######################################
### Exact MIP solver for the HHCRSP ###
#######################################
-- Instance file: new-instances/HHCRSP_25_5_87_0.4_C_C.txt
-- Max threads: 4
-- Time limit: 999999 seconds
-- Use initial solution: No
Trivial flow violations prevented generating 903 variables.
Model exported.
Version identifier: 20.1.0.0 | 2020-11-10 | 9bedb6d68
CPXPARAM_Threads                                 4
CPXPARAM_TimeLimit                               999999
Tried aggregator 1 time.
LP Presolve eliminated 389 rows and 134 columns.
Reduced LP has 1085 rows, 1067 columns, and 6952 nonzeros.
Presolve time = 0.00 sec. (2.59 ticks)

Iteration log . . .
Iteration:     1   Dual objective     =             0.000000
Iteration:   118   Dual objective     =            87.714753

Solution status from MIP model:
-- Processing time: 0.007 sec.
-- Memory used: 14.8311 MB
-- Best bound: inf
-- Obj value: 87.7166
-- Gap: inf%
-- Total distance: 263.15
-- Total tardiness: 0
-- Largest tardiness: 0
